(set-logic QF_S)
(declare-fun var0 () Int)
(declare-fun var1 () Int)
(declare-fun var2 () String)
(declare-fun var3 () Int)
(declare-fun var4 () String)
(declare-fun var5 () String)
(declare-fun var6 () String)
(declare-fun var7 () Int)
(assert (str.suffixof (str.substr "G;a8" var0 var1) (str.substr (str.at var2 var3) (str.to.int var4) (str.len var5))))
(assert (>= (str.len var6) (str.indexof var6 var4 var7)))
(assert (str.suffixof (str.replace (str.at var6 var1) (str.replace var4 var4 var4) (str.at var5 49)) (str.at (str.at var6 var1) (str.to.int var2))))
(assert (< (str.len (str.substr var5 var0 var7)) (str.len var4)))
(check-sat)